204
Route #1: 1 35 75 134 
Route #2: 2 31 99 
Route #3: 3 54 97 
Route #4: 4 53 
Route #5: 5 46 76 
Route #6: 6 18 
Route #7: 7 28 64 
Route #8: 8 33 107 
Route #9: 9 14 38 71 87 
Route #10: 10 
Route #11: 11 66 
Route #12: 12 47 114 
Route #13: 13 80 
Route #14: 15 
Route #15: 16 56 
Route #16: 17 43 88 
Route #17: 19 74 
Route #18: 20 60 119 
Route #19: 21 69 98 137 
Route #20: 22 
Route #21: 23 61 117 
Route #22: 24 85 
Route #23: 25 42 72 
Route #24: 26 96 
Route #25: 27 44 65 
Route #26: 29 79 
Route #27: 30 62 
Route #28: 32 67 140 
Route #29: 34 
Route #30: 36 
Route #31: 37 57 
Route #32: 39 89 
Route #33: 40 
Route #34: 41 55 136 178 
Route #35: 45 141 
Route #36: 48 113 
Route #37: 49 
Route #38: 50 83 132 170 
Route #39: 51 128 
Route #40: 52 142 167 
Route #41: 58 133 185 
Route #42: 59 73 124 177 
Route #43: 63 94 154 
Route #44: 68 138 211 
Route #45: 70 
Route #46: 77 130 168 
Route #47: 78 144 
Route #48: 81 123 209 
Route #49: 82 147 
Route #50: 84 179 
Route #51: 86 110 173 220 
Route #52: 90 171 
Route #53: 91 175 
Route #54: 92 150 194 244 
Route #55: 93 121 
Route #56: 95 166 
Route #57: 100 181 
Route #58: 101 156 190 
Route #59: 102 131 163 174 
Route #60: 103 164 
Route #61: 104 169 218 255 
Route #62: 105 122 152 217 
Route #63: 106 165 239 
Route #64: 108 149 232 
Route #65: 109 151 
Route #66: 111 180 226 248 
Route #67: 112 172 215 261 
Route #68: 115 126 191 227 
Route #69: 116 176 
Route #70: 118 202 
Route #71: 120 197 
Route #72: 125 159 
Route #73: 127 192 270 
Route #74: 129 214 
Route #75: 135 204 
Route #76: 139 161 203 265 
Route #77: 143 237 
Route #78: 145 199 
Route #79: 146 229 241 285 
Route #80: 148 188 212 240 250 
Route #81: 153 225 304 
Route #82: 155 228 271 
Route #83: 157 216 312 
Route #84: 158 231 
Route #85: 160 183 254 
Route #86: 162 
Route #87: 182 222 276 328 
Route #88: 184 260 289 
Route #89: 186 223 299 
Route #90: 187 234 294 
Route #91: 189 236 315 
Route #92: 193 275 
Route #93: 195 256 317 
Route #94: 196 238 313 
Route #95: 198 266 
Route #96: 200 230 300 
Route #97: 201 243 318 
Route #98: 205 279 327 
Route #99: 206 292 
Route #100: 207 221 269 288 
Route #101: 208 284 
Route #102: 210 233 282 
Route #103: 213 302 
Route #104: 219 252 291 
Route #105: 224 280 286 354 
Route #106: 235 337 
Route #107: 242 295 332 
Route #108: 245 309 369 
Route #109: 246 310 
Route #110: 247 268 293 322 360 
Route #111: 249 287 314 
Route #112: 251 272 
Route #113: 253 281 380 
Route #114: 257 273 349 
Route #115: 258 351 
Route #116: 259 311 387 
Route #117: 262 316 
Route #118: 263 353 
Route #119: 264 306 
Route #120: 267 341 
Route #121: 274 298 
Route #122: 277 376 
Route #123: 278 334 
Route #124: 283 377 384 
Route #125: 290 368 
Route #126: 296 366 403 
Route #127: 297 391 425 
Route #128: 301 340 404 
Route #129: 303 397 
Route #130: 305 352 396 
Route #131: 307 
Route #132: 308 361 411 
Route #133: 319 383 427 
Route #134: 320 414 
Route #135: 321 356 438 
Route #136: 323 
Route #137: 324 412 
Route #138: 325 423 
Route #139: 326 385 
Route #140: 329 402 
Route #141: 330 392 
Route #142: 331 381 
Route #143: 333 371 436 
Route #144: 335 393 488 
Route #145: 336 398 441 
Route #146: 338 386 437 
Route #147: 339 424 500 
Route #148: 342 395 480 
Route #149: 343 382 455 
Route #150: 344 420 
Route #151: 345 416 445 
Route #152: 346 439 470 
Route #153: 347 407 485 
Route #154: 348 373 415 450 
Route #155: 350 355 428 475 
Route #156: 357 433 
Route #157: 358 
Route #158: 359 409 486 
Route #159: 362 444 
Route #160: 363 478 
Route #161: 364 388 430 
Route #162: 365 379 448 
Route #163: 367 390 456 
Route #164: 370 405 442 491 
Route #165: 372 460 
Route #166: 374 446 
Route #167: 375 458 
Route #168: 378 453 492 
Route #169: 389 449 
Route #170: 394 454 
Route #171: 399 452 
Route #172: 400 419 459 
Route #173: 401 462 
Route #174: 406 473 
Route #175: 408 474 
Route #176: 410 483 
Route #177: 413 476 
Route #178: 417 472 
Route #179: 418 471 
Route #180: 421 465 
Route #181: 422 466 
Route #182: 426 477 
Route #183: 429 493 
Route #184: 431 467 
Route #185: 432 
Route #186: 434 
Route #187: 435 451 463 
Route #188: 440 457 490 
Route #189: 443 469 
Route #190: 447 
Route #191: 461 
Route #192: 464 
Route #193: 468 498 
Route #194: 479 
Route #195: 481 
Route #196: 482 
Route #197: 484 
Route #198: 487 
Route #199: 489 
Route #200: 494 
Route #201: 495 
Route #202: 496 
Route #203: 497 
Route #204: 499 
Cost 360918.0
